(set-option :produce-models true)
(set-logic QF_LRA)
(set-info :notes | Strip-packing problem.|)
(declare-fun x0 () Real)
(declare-fun y0 () Real)
(declare-fun x1 () Real)
(declare-fun y1 () Real)
(declare-fun x2 () Real)
(declare-fun y2 () Real)
(declare-fun x3 () Real)
(declare-fun y3 () Real)
(declare-fun x4 () Real)
(declare-fun y4 () Real)
(declare-fun x5 () Real)
(declare-fun y5 () Real)
(declare-fun x6 () Real)
(declare-fun y6 () Real)
(declare-fun x7 () Real)
(declare-fun y7 () Real)
(declare-fun x8 () Real)
(declare-fun y8 () Real)
(declare-fun x9 () Real)
(declare-fun y9 () Real)
(declare-fun x10 () Real)
(declare-fun y10 () Real)
(declare-fun x11 () Real)
(declare-fun y11 () Real)
(declare-fun x12 () Real)
(declare-fun y12 () Real)
(declare-fun x13 () Real)
(declare-fun y13 () Real)
(declare-fun x14 () Real)
(declare-fun y14 () Real)
(declare-fun z () Real)
(declare-fun c () Real)
(assert (and (= c z) (and (>= x0 0) 
(and (>= y0 0) 
(and (>= x1 0) 
(and (>= y1 0) 
(and (>= x2 0) 
(and (>= y2 0) 
(and (>= x3 0) 
(and (>= y3 0) 
(and (>= x4 0) 
(and (>= y4 0) 
(and (>= x5 0) 
(and (>= y5 0) 
(and (>= x6 0) 
(and (>= y6 0) 
(and (>= x7 0) 
(and (>= y7 0) 
(and (>= x8 0) 
(and (>= y8 0) 
(and (>= x9 0) 
(and (>= y9 0) 
(and (>= x10 0) 
(and (>= y10 0) 
(and (>= x11 0) 
(and (>= y11 0) 
(and (>= x12 0) 
(and (>= y12 0) 
(and (>= x13 0) 
(and (>= y13 0) 
(and (>= x14 0) 
(and (>= y14 0) 
(and (>= z 0) 
(and (>= c 0) 
(and (<= (+ x0 0.8449505792) z) 
(and (<= 0.8501649426 y0) 
(and (<= y0 1.0) 
(and (<= x0 (- 5.5582234894 0.8449505792)) 
(and (>= x0 0) 
(and (<= (+ x1 0.2768303281) z) 
(and (<= 0.8324892204 y1) 
(and (<= y1 1.0) 
(and (<= x1 (- 5.5582234894 0.2768303281)) 
(and (>= x1 0) 
(and (<= (+ x2 0.1589541306) z) 
(and (<= 0.7841266537 y2) 
(and (<= y2 1.0) 
(and (<= x2 (- 5.5582234894 0.1589541306)) 
(and (>= x2 0) 
(and (<= (+ x3 0.61897931) z) 
(and (<= 0.7692808137 y3) 
(and (<= y3 1.0) 
(and (<= x3 (- 5.5582234894 0.61897931)) 
(and (>= x3 0) 
(and (<= (+ x4 0.4469405243) z) 
(and (<= 0.616455936 y4) 
(and (<= y4 1.0) 
(and (<= x4 (- 5.5582234894 0.4469405243)) 
(and (>= x4 0) 
(and (<= (+ x5 0.1607019825) z) 
(and (<= 0.5606054891 y5) 
(and (<= y5 1.0) 
(and (<= x5 (- 5.5582234894 0.1607019825)) 
(and (>= x5 0) 
(and (<= (+ x6 0.2683757934) z) 
(and (<= 0.423572041 y6) 
(and (<= y6 1.0) 
(and (<= x6 (- 5.5582234894 0.2683757934)) 
(and (>= x6 0) 
(and (<= (+ x7 0.3453447991) z) 
(and (<= 0.379226561 y7) 
(and (<= y7 1.0) 
(and (<= x7 (- 5.5582234894 0.3453447991)) 
(and (>= x7 0) 
(and (<= (+ x8 0.2187904324) z) 
(and (<= 0.3384190276 y8) 
(and (<= y8 1.0) 
(and (<= x8 (- 5.5582234894 0.2187904324)) 
(and (>= x8 0) 
(and (<= (+ x9 0.874996211) z) 
(and (<= 0.3300476967 y9) 
(and (<= y9 1.0) 
(and (<= x9 (- 5.5582234894 0.874996211)) 
(and (>= x9 0) 
(and (<= (+ x10 0.4220609747) z) 
(and (<= 0.3098673427 y10) 
(and (<= y10 1.0) 
(and (<= x10 (- 5.5582234894 0.4220609747)) 
(and (>= x10 0) 
(and (<= (+ x11 0.2737620148) z) 
(and (<= 0.2676598841 y11) 
(and (<= y11 1.0) 
(and (<= x11 (- 5.5582234894 0.2737620148)) 
(and (>= x11 0) 
(and (<= (+ x12 0.9405008546) z) 
(and (<= 0.2156856985 y12) 
(and (<= y12 1.0) 
(and (<= x12 (- 5.5582234894 0.9405008546)) 
(and (>= x12 0) 
(and (<= (+ x13 0.9669937757) z) 
(and (<= 0.1331083009 y13) 
(and (<= y13 1.0) 
(and (<= x13 (- 5.5582234894 0.9669937757)) 
(and (>= x13 0) 
(and (<= (+ x14 0.8339632757) z) 
(and (<= 0.0861665652 y14) 
(and (<= y14 1.0) 
(and (<= x14 (- 5.5582234894 0.8339632757)) 
(and (>= x14 0) 
(and (<= c 5.5582234894) 
(and (or (<= (+ x0 0.8449505792) x1) (or (<= (+ x1 0.2768303281) x0) (or (>= (- y0 0.8501649426) y1) (or (>= (- y1 0.8324892204) y0))))) 
(and (or (<= (+ x0 0.8449505792) x2) (or (<= (+ x2 0.1589541306) x0) (or (>= (- y0 0.8501649426) y2) (or (>= (- y2 0.7841266537) y0))))) 
(and (or (<= (+ x0 0.8449505792) x3) (or (<= (+ x3 0.61897931) x0) (or (>= (- y0 0.8501649426) y3) (or (>= (- y3 0.7692808137) y0))))) 
(and (or (<= (+ x0 0.8449505792) x4) (or (<= (+ x4 0.4469405243) x0) (or (>= (- y0 0.8501649426) y4) (or (>= (- y4 0.616455936) y0))))) 
(and (or (<= (+ x0 0.8449505792) x5) (or (<= (+ x5 0.1607019825) x0) (or (>= (- y0 0.8501649426) y5) (or (>= (- y5 0.5606054891) y0))))) 
(and (or (<= (+ x0 0.8449505792) x6) (or (<= (+ x6 0.2683757934) x0) (or (>= (- y0 0.8501649426) y6) (or (>= (- y6 0.423572041) y0))))) 
(and (or (<= (+ x0 0.8449505792) x7) (or (<= (+ x7 0.3453447991) x0) (or (>= (- y0 0.8501649426) y7) (or (>= (- y7 0.379226561) y0))))) 
(and (or (<= (+ x0 0.8449505792) x8) (or (<= (+ x8 0.2187904324) x0) (or (>= (- y0 0.8501649426) y8) (or (>= (- y8 0.3384190276) y0))))) 
(and (or (<= (+ x0 0.8449505792) x9) (or (<= (+ x9 0.874996211) x0) (or (>= (- y0 0.8501649426) y9) (or (>= (- y9 0.3300476967) y0))))) 
(and (or (<= (+ x0 0.8449505792) x10) (or (<= (+ x10 0.4220609747) x0) (or (>= (- y0 0.8501649426) y10) (or (>= (- y10 0.3098673427) y0))))) 
(and (or (<= (+ x0 0.8449505792) x11) (or (<= (+ x11 0.2737620148) x0) (or (>= (- y0 0.8501649426) y11) (or (>= (- y11 0.2676598841) y0))))) 
(and (or (<= (+ x0 0.8449505792) x12) (or (<= (+ x12 0.9405008546) x0) (or (>= (- y0 0.8501649426) y12) (or (>= (- y12 0.2156856985) y0))))) 
(and (or (<= (+ x0 0.8449505792) x13) (or (<= (+ x13 0.9669937757) x0) (or (>= (- y0 0.8501649426) y13) (or (>= (- y13 0.1331083009) y0))))) 
(and (or (<= (+ x0 0.8449505792) x14) (or (<= (+ x14 0.8339632757) x0) (or (>= (- y0 0.8501649426) y14) (or (>= (- y14 0.0861665652) y0))))) 
(and (or (<= (+ x1 0.2768303281) x2) (or (<= (+ x2 0.1589541306) x1) (or (>= (- y1 0.8324892204) y2) (or (>= (- y2 0.7841266537) y1))))) 
(and (or (<= (+ x1 0.2768303281) x3) (or (<= (+ x3 0.61897931) x1) (or (>= (- y1 0.8324892204) y3) (or (>= (- y3 0.7692808137) y1))))) 
(and (or (<= (+ x1 0.2768303281) x4) (or (<= (+ x4 0.4469405243) x1) (or (>= (- y1 0.8324892204) y4) (or (>= (- y4 0.616455936) y1))))) 
(and (or (<= (+ x1 0.2768303281) x5) (or (<= (+ x5 0.1607019825) x1) (or (>= (- y1 0.8324892204) y5) (or (>= (- y5 0.5606054891) y1))))) 
(and (or (<= (+ x1 0.2768303281) x6) (or (<= (+ x6 0.2683757934) x1) (or (>= (- y1 0.8324892204) y6) (or (>= (- y6 0.423572041) y1))))) 
(and (or (<= (+ x1 0.2768303281) x7) (or (<= (+ x7 0.3453447991) x1) (or (>= (- y1 0.8324892204) y7) (or (>= (- y7 0.379226561) y1))))) 
(and (or (<= (+ x1 0.2768303281) x8) (or (<= (+ x8 0.2187904324) x1) (or (>= (- y1 0.8324892204) y8) (or (>= (- y8 0.3384190276) y1))))) 
(and (or (<= (+ x1 0.2768303281) x9) (or (<= (+ x9 0.874996211) x1) (or (>= (- y1 0.8324892204) y9) (or (>= (- y9 0.3300476967) y1))))) 
(and (or (<= (+ x1 0.2768303281) x10) (or (<= (+ x10 0.4220609747) x1) (or (>= (- y1 0.8324892204) y10) (or (>= (- y10 0.3098673427) y1))))) 
(and (or (<= (+ x1 0.2768303281) x11) (or (<= (+ x11 0.2737620148) x1) (or (>= (- y1 0.8324892204) y11) (or (>= (- y11 0.2676598841) y1))))) 
(and (or (<= (+ x1 0.2768303281) x12) (or (<= (+ x12 0.9405008546) x1) (or (>= (- y1 0.8324892204) y12) (or (>= (- y12 0.2156856985) y1))))) 
(and (or (<= (+ x1 0.2768303281) x13) (or (<= (+ x13 0.9669937757) x1) (or (>= (- y1 0.8324892204) y13) (or (>= (- y13 0.1331083009) y1))))) 
(and (or (<= (+ x1 0.2768303281) x14) (or (<= (+ x14 0.8339632757) x1) (or (>= (- y1 0.8324892204) y14) (or (>= (- y14 0.0861665652) y1))))) 
(and (or (<= (+ x2 0.1589541306) x3) (or (<= (+ x3 0.61897931) x2) (or (>= (- y2 0.7841266537) y3) (or (>= (- y3 0.7692808137) y2))))) 
(and (or (<= (+ x2 0.1589541306) x4) (or (<= (+ x4 0.4469405243) x2) (or (>= (- y2 0.7841266537) y4) (or (>= (- y4 0.616455936) y2))))) 
(and (or (<= (+ x2 0.1589541306) x5) (or (<= (+ x5 0.1607019825) x2) (or (>= (- y2 0.7841266537) y5) (or (>= (- y5 0.5606054891) y2))))) 
(and (or (<= (+ x2 0.1589541306) x6) (or (<= (+ x6 0.2683757934) x2) (or (>= (- y2 0.7841266537) y6) (or (>= (- y6 0.423572041) y2))))) 
(and (or (<= (+ x2 0.1589541306) x7) (or (<= (+ x7 0.3453447991) x2) (or (>= (- y2 0.7841266537) y7) (or (>= (- y7 0.379226561) y2))))) 
(and (or (<= (+ x2 0.1589541306) x8) (or (<= (+ x8 0.2187904324) x2) (or (>= (- y2 0.7841266537) y8) (or (>= (- y8 0.3384190276) y2))))) 
(and (or (<= (+ x2 0.1589541306) x9) (or (<= (+ x9 0.874996211) x2) (or (>= (- y2 0.7841266537) y9) (or (>= (- y9 0.3300476967) y2))))) 
(and (or (<= (+ x2 0.1589541306) x10) (or (<= (+ x10 0.4220609747) x2) (or (>= (- y2 0.7841266537) y10) (or (>= (- y10 0.3098673427) y2))))) 
(and (or (<= (+ x2 0.1589541306) x11) (or (<= (+ x11 0.2737620148) x2) (or (>= (- y2 0.7841266537) y11) (or (>= (- y11 0.2676598841) y2))))) 
(and (or (<= (+ x2 0.1589541306) x12) (or (<= (+ x12 0.9405008546) x2) (or (>= (- y2 0.7841266537) y12) (or (>= (- y12 0.2156856985) y2))))) 
(and (or (<= (+ x2 0.1589541306) x13) (or (<= (+ x13 0.9669937757) x2) (or (>= (- y2 0.7841266537) y13) (or (>= (- y13 0.1331083009) y2))))) 
(and (or (<= (+ x2 0.1589541306) x14) (or (<= (+ x14 0.8339632757) x2) (or (>= (- y2 0.7841266537) y14) (or (>= (- y14 0.0861665652) y2))))) 
(and (or (<= (+ x3 0.61897931) x4) (or (<= (+ x4 0.4469405243) x3) (or (>= (- y3 0.7692808137) y4) (or (>= (- y4 0.616455936) y3))))) 
(and (or (<= (+ x3 0.61897931) x5) (or (<= (+ x5 0.1607019825) x3) (or (>= (- y3 0.7692808137) y5) (or (>= (- y5 0.5606054891) y3))))) 
(and (or (<= (+ x3 0.61897931) x6) (or (<= (+ x6 0.2683757934) x3) (or (>= (- y3 0.7692808137) y6) (or (>= (- y6 0.423572041) y3))))) 
(and (or (<= (+ x3 0.61897931) x7) (or (<= (+ x7 0.3453447991) x3) (or (>= (- y3 0.7692808137) y7) (or (>= (- y7 0.379226561) y3))))) 
(and (or (<= (+ x3 0.61897931) x8) (or (<= (+ x8 0.2187904324) x3) (or (>= (- y3 0.7692808137) y8) (or (>= (- y8 0.3384190276) y3))))) 
(and (or (<= (+ x3 0.61897931) x9) (or (<= (+ x9 0.874996211) x3) (or (>= (- y3 0.7692808137) y9) (or (>= (- y9 0.3300476967) y3))))) 
(and (or (<= (+ x3 0.61897931) x10) (or (<= (+ x10 0.4220609747) x3) (or (>= (- y3 0.7692808137) y10) (or (>= (- y10 0.3098673427) y3))))) 
(and (or (<= (+ x3 0.61897931) x11) (or (<= (+ x11 0.2737620148) x3) (or (>= (- y3 0.7692808137) y11) (or (>= (- y11 0.2676598841) y3))))) 
(and (or (<= (+ x3 0.61897931) x12) (or (<= (+ x12 0.9405008546) x3) (or (>= (- y3 0.7692808137) y12) (or (>= (- y12 0.2156856985) y3))))) 
(and (or (<= (+ x3 0.61897931) x13) (or (<= (+ x13 0.9669937757) x3) (or (>= (- y3 0.7692808137) y13) (or (>= (- y13 0.1331083009) y3))))) 
(and (or (<= (+ x3 0.61897931) x14) (or (<= (+ x14 0.8339632757) x3) (or (>= (- y3 0.7692808137) y14) (or (>= (- y14 0.0861665652) y3))))) 
(and (or (<= (+ x4 0.4469405243) x5) (or (<= (+ x5 0.1607019825) x4) (or (>= (- y4 0.616455936) y5) (or (>= (- y5 0.5606054891) y4))))) 
(and (or (<= (+ x4 0.4469405243) x6) (or (<= (+ x6 0.2683757934) x4) (or (>= (- y4 0.616455936) y6) (or (>= (- y6 0.423572041) y4))))) 
(and (or (<= (+ x4 0.4469405243) x7) (or (<= (+ x7 0.3453447991) x4) (or (>= (- y4 0.616455936) y7) (or (>= (- y7 0.379226561) y4))))) 
(and (or (<= (+ x4 0.4469405243) x8) (or (<= (+ x8 0.2187904324) x4) (or (>= (- y4 0.616455936) y8) (or (>= (- y8 0.3384190276) y4))))) 
(and (or (<= (+ x4 0.4469405243) x9) (or (<= (+ x9 0.874996211) x4) (or (>= (- y4 0.616455936) y9) (or (>= (- y9 0.3300476967) y4))))) 
(and (or (<= (+ x4 0.4469405243) x10) (or (<= (+ x10 0.4220609747) x4) (or (>= (- y4 0.616455936) y10) (or (>= (- y10 0.3098673427) y4))))) 
(and (or (<= (+ x4 0.4469405243) x11) (or (<= (+ x11 0.2737620148) x4) (or (>= (- y4 0.616455936) y11) (or (>= (- y11 0.2676598841) y4))))) 
(and (or (<= (+ x4 0.4469405243) x12) (or (<= (+ x12 0.9405008546) x4) (or (>= (- y4 0.616455936) y12) (or (>= (- y12 0.2156856985) y4))))) 
(and (or (<= (+ x4 0.4469405243) x13) (or (<= (+ x13 0.9669937757) x4) (or (>= (- y4 0.616455936) y13) (or (>= (- y13 0.1331083009) y4))))) 
(and (or (<= (+ x4 0.4469405243) x14) (or (<= (+ x14 0.8339632757) x4) (or (>= (- y4 0.616455936) y14) (or (>= (- y14 0.0861665652) y4))))) 
(and (or (<= (+ x5 0.1607019825) x6) (or (<= (+ x6 0.2683757934) x5) (or (>= (- y5 0.5606054891) y6) (or (>= (- y6 0.423572041) y5))))) 
(and (or (<= (+ x5 0.1607019825) x7) (or (<= (+ x7 0.3453447991) x5) (or (>= (- y5 0.5606054891) y7) (or (>= (- y7 0.379226561) y5))))) 
(and (or (<= (+ x5 0.1607019825) x8) (or (<= (+ x8 0.2187904324) x5) (or (>= (- y5 0.5606054891) y8) (or (>= (- y8 0.3384190276) y5))))) 
(and (or (<= (+ x5 0.1607019825) x9) (or (<= (+ x9 0.874996211) x5) (or (>= (- y5 0.5606054891) y9) (or (>= (- y9 0.3300476967) y5))))) 
(and (or (<= (+ x5 0.1607019825) x10) (or (<= (+ x10 0.4220609747) x5) (or (>= (- y5 0.5606054891) y10) (or (>= (- y10 0.3098673427) y5))))) 
(and (or (<= (+ x5 0.1607019825) x11) (or (<= (+ x11 0.2737620148) x5) (or (>= (- y5 0.5606054891) y11) (or (>= (- y11 0.2676598841) y5))))) 
(and (or (<= (+ x5 0.1607019825) x12) (or (<= (+ x12 0.9405008546) x5) (or (>= (- y5 0.5606054891) y12) (or (>= (- y12 0.2156856985) y5))))) 
(and (or (<= (+ x5 0.1607019825) x13) (or (<= (+ x13 0.9669937757) x5) (or (>= (- y5 0.5606054891) y13) (or (>= (- y13 0.1331083009) y5))))) 
(and (or (<= (+ x5 0.1607019825) x14) (or (<= (+ x14 0.8339632757) x5) (or (>= (- y5 0.5606054891) y14) (or (>= (- y14 0.0861665652) y5))))) 
(and (or (<= (+ x6 0.2683757934) x7) (or (<= (+ x7 0.3453447991) x6) (or (>= (- y6 0.423572041) y7) (or (>= (- y7 0.379226561) y6))))) 
(and (or (<= (+ x6 0.2683757934) x8) (or (<= (+ x8 0.2187904324) x6) (or (>= (- y6 0.423572041) y8) (or (>= (- y8 0.3384190276) y6))))) 
(and (or (<= (+ x6 0.2683757934) x9) (or (<= (+ x9 0.874996211) x6) (or (>= (- y6 0.423572041) y9) (or (>= (- y9 0.3300476967) y6))))) 
(and (or (<= (+ x6 0.2683757934) x10) (or (<= (+ x10 0.4220609747) x6) (or (>= (- y6 0.423572041) y10) (or (>= (- y10 0.3098673427) y6))))) 
(and (or (<= (+ x6 0.2683757934) x11) (or (<= (+ x11 0.2737620148) x6) (or (>= (- y6 0.423572041) y11) (or (>= (- y11 0.2676598841) y6))))) 
(and (or (<= (+ x6 0.2683757934) x12) (or (<= (+ x12 0.9405008546) x6) (or (>= (- y6 0.423572041) y12) (or (>= (- y12 0.2156856985) y6))))) 
(and (or (<= (+ x6 0.2683757934) x13) (or (<= (+ x13 0.9669937757) x6) (or (>= (- y6 0.423572041) y13) (or (>= (- y13 0.1331083009) y6))))) 
(and (or (<= (+ x6 0.2683757934) x14) (or (<= (+ x14 0.8339632757) x6) (or (>= (- y6 0.423572041) y14) (or (>= (- y14 0.0861665652) y6))))) 
(and (or (<= (+ x7 0.3453447991) x8) (or (<= (+ x8 0.2187904324) x7) (or (>= (- y7 0.379226561) y8) (or (>= (- y8 0.3384190276) y7))))) 
(and (or (<= (+ x7 0.3453447991) x9) (or (<= (+ x9 0.874996211) x7) (or (>= (- y7 0.379226561) y9) (or (>= (- y9 0.3300476967) y7))))) 
(and (or (<= (+ x7 0.3453447991) x10) (or (<= (+ x10 0.4220609747) x7) (or (>= (- y7 0.379226561) y10) (or (>= (- y10 0.3098673427) y7))))) 
(and (or (<= (+ x7 0.3453447991) x11) (or (<= (+ x11 0.2737620148) x7) (or (>= (- y7 0.379226561) y11) (or (>= (- y11 0.2676598841) y7))))) 
(and (or (<= (+ x7 0.3453447991) x12) (or (<= (+ x12 0.9405008546) x7) (or (>= (- y7 0.379226561) y12) (or (>= (- y12 0.2156856985) y7))))) 
(and (or (<= (+ x7 0.3453447991) x13) (or (<= (+ x13 0.9669937757) x7) (or (>= (- y7 0.379226561) y13) (or (>= (- y13 0.1331083009) y7))))) 
(and (or (<= (+ x7 0.3453447991) x14) (or (<= (+ x14 0.8339632757) x7) (or (>= (- y7 0.379226561) y14) (or (>= (- y14 0.0861665652) y7))))) 
(and (or (<= (+ x8 0.2187904324) x9) (or (<= (+ x9 0.874996211) x8) (or (>= (- y8 0.3384190276) y9) (or (>= (- y9 0.3300476967) y8))))) 
(and (or (<= (+ x8 0.2187904324) x10) (or (<= (+ x10 0.4220609747) x8) (or (>= (- y8 0.3384190276) y10) (or (>= (- y10 0.3098673427) y8))))) 
(and (or (<= (+ x8 0.2187904324) x11) (or (<= (+ x11 0.2737620148) x8) (or (>= (- y8 0.3384190276) y11) (or (>= (- y11 0.2676598841) y8))))) 
(and (or (<= (+ x8 0.2187904324) x12) (or (<= (+ x12 0.9405008546) x8) (or (>= (- y8 0.3384190276) y12) (or (>= (- y12 0.2156856985) y8))))) 
(and (or (<= (+ x8 0.2187904324) x13) (or (<= (+ x13 0.9669937757) x8) (or (>= (- y8 0.3384190276) y13) (or (>= (- y13 0.1331083009) y8))))) 
(and (or (<= (+ x8 0.2187904324) x14) (or (<= (+ x14 0.8339632757) x8) (or (>= (- y8 0.3384190276) y14) (or (>= (- y14 0.0861665652) y8))))) 
(and (or (<= (+ x9 0.874996211) x10) (or (<= (+ x10 0.4220609747) x9) (or (>= (- y9 0.3300476967) y10) (or (>= (- y10 0.3098673427) y9))))) 
(and (or (<= (+ x9 0.874996211) x11) (or (<= (+ x11 0.2737620148) x9) (or (>= (- y9 0.3300476967) y11) (or (>= (- y11 0.2676598841) y9))))) 
(and (or (<= (+ x9 0.874996211) x12) (or (<= (+ x12 0.9405008546) x9) (or (>= (- y9 0.3300476967) y12) (or (>= (- y12 0.2156856985) y9))))) 
(and (or (<= (+ x9 0.874996211) x13) (or (<= (+ x13 0.9669937757) x9) (or (>= (- y9 0.3300476967) y13) (or (>= (- y13 0.1331083009) y9))))) 
(and (or (<= (+ x9 0.874996211) x14) (or (<= (+ x14 0.8339632757) x9) (or (>= (- y9 0.3300476967) y14) (or (>= (- y14 0.0861665652) y9))))) 
(and (or (<= (+ x10 0.4220609747) x11) (or (<= (+ x11 0.2737620148) x10) (or (>= (- y10 0.3098673427) y11) (or (>= (- y11 0.2676598841) y10))))) 
(and (or (<= (+ x10 0.4220609747) x12) (or (<= (+ x12 0.9405008546) x10) (or (>= (- y10 0.3098673427) y12) (or (>= (- y12 0.2156856985) y10))))) 
(and (or (<= (+ x10 0.4220609747) x13) (or (<= (+ x13 0.9669937757) x10) (or (>= (- y10 0.3098673427) y13) (or (>= (- y13 0.1331083009) y10))))) 
(and (or (<= (+ x10 0.4220609747) x14) (or (<= (+ x14 0.8339632757) x10) (or (>= (- y10 0.3098673427) y14) (or (>= (- y14 0.0861665652) y10))))) 
(and (or (<= (+ x11 0.2737620148) x12) (or (<= (+ x12 0.9405008546) x11) (or (>= (- y11 0.2676598841) y12) (or (>= (- y12 0.2156856985) y11))))) 
(and (or (<= (+ x11 0.2737620148) x13) (or (<= (+ x13 0.9669937757) x11) (or (>= (- y11 0.2676598841) y13) (or (>= (- y13 0.1331083009) y11))))) 
(and (or (<= (+ x11 0.2737620148) x14) (or (<= (+ x14 0.8339632757) x11) (or (>= (- y11 0.2676598841) y14) (or (>= (- y14 0.0861665652) y11))))) 
(and (or (<= (+ x12 0.9405008546) x13) (or (<= (+ x13 0.9669937757) x12) (or (>= (- y12 0.2156856985) y13) (or (>= (- y13 0.1331083009) y12))))) 
(and (or (<= (+ x12 0.9405008546) x14) (or (<= (+ x14 0.8339632757) x12) (or (>= (- y12 0.2156856985) y14) (or (>= (- y14 0.0861665652) y12))))) 
(and (or (<= (+ x13 0.9669937757) x14) (or (<= (+ x14 0.8339632757) x13) (or (>= (- y13 0.1331083009) y14) (or (>= (- y14 0.0861665652) y13))))) )))))))))))))))))))))))))))))))))))))))))))))))))))))))))))))))))))))))))))))))))))))))))))))))))))))))))))))))))))))))))))))))))))))))))))))))))))))))))))))))))))))))))))))))))))))))))))))))))))))))))))))))))))))))
(minimize c)
(check-sat)
(get-objectives)
(exit)
